WARNING: for repeatability, setting FPU to use double precision
============================[ Problem Statistics ]=============================
|                                                                             |
|  Number of variables:           100                                         |
|  Number of clauses:             449                                         |
|  Parse time:                   0.00 s                                       |
|  Eliminated clauses:           0.00 Mb                                      |
|  Simplification time:          0.00 s                                       |
|                                                                             |
============================[ Search Statistics ]==============================
| Conflicts |          ORIGINAL         |          LEARNT          | Progress |
|           |    Vars  Clauses Literals |    Limit  Clauses Lit/Cl |          |
===============================================================================
|       100 |      98      446     1351 |      163      100      8 |  0.010 % |
===============================================================================
restarts              : 2
conflicts             : 121            (46954 /sec)
decisions             : 166            (0.00 % random) (64416 /sec)
propagations          : 2914           (1130772 /sec)
conflict literals     : 922            (11.85 % deleted)
Memory used           : 13.00 MB
CPU time              : 0.002577 s

SATISFIABLE
